--- Job HW5 MIP.gms Start 10/05/20 18:50:19 32.2.0 rc62c018 WEX-WEI x86 64bit/MS Windows
--- Applying:
    C:\GAMS\32\gmsprmNT.txt
--- GAMS Parameters defined
    Input "C:\Users\oboem\Documents\GitHub\CEE-5410-Walker\HW5 MIP.gms"
    PageSize 0
    ScrDir C:\Users\oboem\Documents\GitHub\CEE-5410-Walker\225a\
    SysDir C:\GAMS\32\
    LogOption 3
    ErrMsg 1
    ErrorLog 99
    IDE 1
    LstTitleLeftAligned 1
GAMS 32.2.0   Copyright (C) 1987-2020 GAMS Development. All rights reserved
Licensee: Small MUD - 5 User License                     G200622/0001AP-GEN
          Utah State University, Utah Water Research Laboratory      DC7087
          C:\GAMS\32\gamslice.txt
--- Starting compilation
--- HW5 MIP.gms(54) 3 Mb
--- Starting execution: elapsed 0:00:00.014
--- Generating MIP model Farmer
--- HW5 MIP.gms(54) 4 Mb
---   12 rows  14 columns  35 non-zeroes
---   4 discrete-columns
--- Executing CPLEX (Solvelink=2): elapsed 0:00:00.051

IBM ILOG CPLEX   32.2.0 rc62c018 Released Aug 26, 2020 WEI x86 64bit/MS Window
--- GAMS/Cplex Link licensed for continuous and discrete problems.
Cplex 12.10.0.0

Reading data...
Starting Cplex...
Space for names approximately 0.00 Mb
Use option 'names no' to turn use of names off
Version identifier: 12.10.0.0 | 2019-11-26 | 843d4de2ae
CPXPARAM_Advance                                 0
CPXPARAM_Simplex_Display                         2
CPXPARAM_Threads                                 1
CPXPARAM_Parallel                                1
CPXPARAM_MIP_Display                             4
CPXPARAM_MIP_Tolerances_AbsMIPGap                0
CPXPARAM_WorkDir                                 "C:\Users\oboem\Documents\GitHub\CEE-5410-Walker\225a\"
Found incumbent of value -8000.000000 after 0.00 sec. (0.00 ticks)
Tried aggregator 1 time.
MIP Presolve eliminated 3 rows and 2 columns.
MIP Presolve modified 1 coefficients.
Reduced MIP has 9 rows, 12 columns, and 26 nonzeros.
Reduced MIP has 3 binaries, 0 generals, 0 SOSs, and 0 indicators.
Presolve time = 0.00 sec. (0.01 ticks)
Probing fixed 0 vars, tightened 1 bounds.
Probing time = 0.00 sec. (0.00 ticks)
Tried aggregator 1 time.
Detecting symmetries...
Reduced MIP has 9 rows, 12 columns, and 26 nonzeros.
Reduced MIP has 3 binaries, 0 generals, 0 SOSs, and 0 indicators.
Presolve time = 0.00 sec. (0.01 ticks)
Probing time = 0.00 sec. (0.00 ticks)
Clique table members: 1.
MIP emphasis: balance optimality and feasibility.
MIP search method: dynamic search.
Parallel mode: none, using 1 thread.
Tried aggregator 1 time.
LP Presolve eliminated 0 rows and 1 columns.
Reduced LP has 9 rows, 11 columns, and 25 nonzeros.
Presolve time = 0.00 sec. (0.01 ticks)
Initializing dual steep norms . . .

Iteration      Dual Objective            In Variable           Out Variable
     1          112150.000000             X(farm.t1)      AreaIrr(t1) slack
     2          104120.000000                      A      AreaIrr(t2) slack
     3           96110.000000             X(pump.t1)            X(river.t2)
     4           95380.000000            X(river.t2)    RiverMass(t2) slack
     5           92500.000000             X(pump.t2)    RiverMass(t1) slack
     6           92150.000000             X(farm.t2)            X(river.t2)
     7           82441.666667                I(high)      ResStor(t1) slack
Initializing dual steep norms . . .
Root relaxation solution time = 0.00 sec. (0.02 ticks)

        Nodes                                         Cuts/
   Node  Left     Objective  IInf  Best Integer    Best Bound    ItCnt     Gap

*     0+    0                        -8000.0000   112150.0000              --- 
Found incumbent of value -8000.000000 after 0.00 sec. (0.07 ticks)
      0     0    82441.6667     2    -8000.0000    82441.6667        7     --- 
*     0+    0                        82150.0000    82441.6667             0.36%
Found incumbent of value 82150.000000 after 0.00 sec. (0.08 ticks)
      0     0        cutoff          82150.0000                      7     --- 
Elapsed time = 0.00 sec. (0.11 ticks, tree = 0.01 MB, solutions = 2)

Root node processing (before b&c):
  Real time             =    0.02 sec. (0.11 ticks)
Sequential b&c:
  Real time             =    0.00 sec. (0.00 ticks)
                          ------------
Total (root+branch&cut) =    0.02 sec. (0.11 ticks)
MIP status(101): integer optimal solution
Cplex Time: 0.02sec (det. 0.11 ticks)
Fixing integer variables, and solving final LP...
Version identifier: 12.10.0.0 | 2019-11-26 | 843d4de2ae
CPXPARAM_Advance                                 2
CPXPARAM_Simplex_Display                         2
CPXPARAM_Threads                                 1
CPXPARAM_Parallel                                1
CPXPARAM_MIP_Display                             4
CPXPARAM_MIP_Tolerances_AbsMIPGap                0
CPXPARAM_WorkDir                                 "C:\Users\oboem\Documents\GitHub\CEE-5410-Walker\225a\"
Tried aggregator 1 time.
LP Presolve eliminated 6 rows and 5 columns.
Reduced LP has 6 rows, 9 columns, and 17 nonzeros.
Presolve time = 0.00 sec. (0.01 ticks)
Initializing dual steep norms . . .

Iteration      Dual Objective            In Variable           Out Variable
     1  I          300.000000             X(farm.t1)      AreaIrr(t1) slack
     2  I          109.999998                      A      AreaIrr(t2) slack
     3  I           54.999998             X(pump.t1)    RiverMass(t1) slack
     4  I            0.000000             X(pump.t2)    RiverMass(t2) slack
Fixed MIP status(1): optimal
Cplex Time: 0.00sec (det. 0.02 ticks)

Proven optimal solution.

MIP Solution:        82150.000000    (7 iterations, 0 nodes)
Final Solve:         82150.000000    (4 iterations)

Best possible:       82150.000000
Absolute gap:            0.000000
Relative gap:            0.000000

--- Reading solution for model Farmer
*** Status: Normal completion
--- Job HW5 MIP.gms Stop 10/05/20 18:50:19 elapsed 0:00:00.181
